experiment/data/hgs-res/Vrp-Set-B-n51/Vrp-Set-B-n51-hgs/0.hgs1.vrp
NAME : 0
COMMENT : CVRP Instance
TYPE : CVRP
DIMENSION : 51
EDGE_WEIGHT_TYPE : EUC_2D
CAPACITY : 100
NODE_COORD_SECTION
1	53.0	55.0
2	1.0	90.0
3	94.0	85.0
4	13.0	19.0
5	97.0	45.0
6	78.0	69.0
7	92.0	35.0
8	98.0	36.0
9	99.0	0.0
10	2.0	94.0
11	85.0	77.0
12	94.0	42.0
13	101.0	3.0
14	103.0	51.0
15	106.0	38.0
16	9.0	95.0
17	88.0	71.0
18	83.0	77.0
19	100.0	55.0
20	17.0	23.0
21	3.0	91.0
22	6.0	91.0
23	9.0	102.0
24	9.0	95.0
25	8.0	104.0
26	9.0	99.0
27	98.0	39.0
28	101.0	8.0
29	99.0	38.0
30	103.0	54.0
31	3.0	103.0
32	101.0	7.0
33	103.0	8.0
34	20.0	25.0
35	97.0	93.0
36	0.0	51.0
37	81.0	70.0
38	103.0	7.0
39	95.0	87.0
40	102.0	54.0
41	83.0	72.0
42	101.0	10.0
43	105.0	48.0
44	96.0	40.0
45	5.0	91.0
46	9.0	96.0
47	10.0	100.0
48	9.0	96.0
49	22.0	21.0
50	2.0	95.0
51	9.0	95.0
DEMAND_SECTION
1	0
2	9
3	10
4	14
5	5
6	8
7	10
8	15
9	16
10	23
11	4
12	22
13	16
14	12
15	20
16	18
17	9
18	17
19	42
20	9
21	17
22	7
23	4
24	7
25	13
26	6
27	22
28	6
29	13
30	21
31	16
32	20
33	11
34	18
35	24
36	26
37	9
38	21
39	3
40	22
41	7
42	10
43	17
44	8
45	10
46	12
47	10
48	24
49	5
50	10
51	6
DEPOT_SECTION
1
-1
EOF
