experiment/data/hgs-res/Vrp-Set-B-n51/Vrp-Set-B-n51-hgs/0.hgs1.log
=========== Algorithm Parameters =================
---- nbGranular        is set to 20
---- mu                is set to 25
---- lambda            is set to 40
---- nbElite           is set to 4
---- nbClose           is set to 5
---- targetFeasible    is set to 0.2
---- seed              is set to 1234
---- nbIter            is set to 20000
---- timeLimit         is set to 0
---- useSwapStar       is set to 1
==================================================
----- READING INSTANCE: baseline_results/cvrp_hgs/Vrp-Set-B-n51/Vrp-Set-B-n51-hgs/0.hgs1.vrp
----- FLEET SIZE WAS NOT SPECIFIED: DEFAULT INITIALIZATION TO 12 VEHICLES
----- INSTANCE SUCCESSFULLY LOADED WITH 50 CLIENTS AND 12 VEHICLES
----- BUILDING INITIAL POPULATION
----- STARTING GENETIC ALGORITHM
It      0      2 | T(s) 0.05 | Feas 38 1019.33 1022.63 | Inf 39 1008.29 1019.08 | Div 0.21 0.22 | Feas 0.62 1.00 | Pen 2.85 0.85
It    500    502 | T(s) 0.23 | Feas 63 1019.33 1020.33 | Inf 37 1009.94 1011.17 | Div 0.14 0.13 | Feas 0.14 1.00 | Pen 2.91 0.38
It   1000   1002 | T(s) 0.39 | Feas 36 1019.33 1024.26 | Inf 26 998.73 1005.30 | Div 0.22 0.20 | Feas 0.18 1.00 | Pen 2.52 0.17
It   1500   1502 | T(s) 0.54 | Feas 43 1019.33 1023.74 | Inf 60 1013.35 1013.96 | Div 0.21 0.10 | Feas 0.23 1.00 | Pen 3.02 0.10
It   2000   2002 | T(s) 0.69 | Feas 62 1019.33 1021.12 | Inf 52 1013.35 1014.08 | Div 0.17 0.12 | Feas 0.18 1.00 | Pen 3.02 0.10
It   2500   2502 | T(s) 0.85 | Feas 34 1019.33 1023.00 | Inf 45 1001.69 1004.28 | Div 0.21 0.14 | Feas 0.26 1.00 | Pen 2.62 0.10
It   3000   3002 | T(s) 1.00 | Feas 42 1019.33 1023.83 | Inf 28 1003.21 1011.62 | Div 0.21 0.24 | Feas 0.26 1.00 | Pen 2.67 0.10
It   3500   3502 | T(s) 1.14 | Feas 49 1019.33 1020.79 | Inf 43 1004.76 1005.44 | Div 0.16 0.11 | Feas 0.22 1.00 | Pen 2.73 0.10
It   4000   4002 | T(s) 1.29 | Feas 45 1019.33 1021.45 | Inf 35 992.89 994.52 | Div 0.18 0.14 | Feas 0.28 1.00 | Pen 2.32 0.10
It   4500   4502 | T(s) 1.45 | Feas 38 1019.33 1024.13 | Inf 39 1006.34 1007.32 | Div 0.22 0.12 | Feas 0.23 1.00 | Pen 2.78 0.10
It   5000   5002 | T(s) 1.60 | Feas 50 1019.33 1021.65 | Inf 57 1007.95 1008.40 | Div 0.19 0.09 | Feas 0.22 1.00 | Pen 2.84 0.10
It   5500   5502 | T(s) 1.76 | Feas 28 1019.33 1026.82 | Inf 47 998.43 999.69 | Div 0.27 0.12 | Feas 0.26 1.00 | Pen 2.51 0.10
It   6000   6002 | T(s) 1.91 | Feas 56 1019.33 1024.26 | Inf 51 1014.74 1015.22 | Div 0.20 0.11 | Feas 0.12 1.00 | Pen 3.07 0.10
It   6500   6502 | T(s) 2.06 | Feas 26 1019.33 1028.72 | Inf 28 1014.74 1016.09 | Div 0.30 0.19 | Feas 0.21 1.00 | Pen 3.07 0.10
It   7000   7002 | T(s) 2.22 | Feas 52 1019.33 1022.19 | Inf 55 1002.89 1003.50 | Div 0.19 0.09 | Feas 0.21 1.00 | Pen 2.66 0.10
It   7500   7502 | T(s) 2.37 | Feas 64 1019.33 1024.36 | Inf 53 1006.01 1006.46 | Div 0.21 0.09 | Feas 0.04 1.00 | Pen 2.77 0.10
It   8000   8002 | T(s) 2.53 | Feas 41 1019.33 1023.95 | Inf 48 1006.01 1006.81 | Div 0.22 0.11 | Feas 0.19 1.00 | Pen 2.77 0.10
It   8500   8502 | T(s) 2.69 | Feas 46 1019.33 1023.26 | Inf 38 1006.01 1007.58 | Div 0.20 0.13 | Feas 0.17 1.00 | Pen 2.77 0.10
It   9000   9002 | T(s) 2.85 | Feas 43 1019.33 1021.18 | Inf 47 1009.26 1010.26 | Div 0.18 0.12 | Feas 0.18 1.00 | Pen 2.88 0.10
It   9500   9502 | T(s) 3.01 | Feas 29 1019.33 1024.94 | Inf 37 1010.93 1012.36 | Div 0.25 0.13 | Feas 0.18 1.00 | Pen 2.94 0.10
It  10000  10002 | T(s) 3.16 | Feas 36 1019.33 1026.76 | Inf 65 1012.63 1013.02 | Div 0.25 0.08 | Feas 0.12 1.00 | Pen 3.00 0.10
It  10500  10502 | T(s) 3.32 | Feas 56 1019.33 1025.77 | Inf 62 1014.37 1014.66 | Div 0.22 0.08 | Feas 0.11 1.00 | Pen 3.06 0.10
It  11000  11002 | T(s) 3.48 | Feas 43 1019.33 1020.98 | Inf 35 1002.57 1008.59 | Div 0.17 0.20 | Feas 0.33 1.00 | Pen 2.65 0.10
It  11500  11502 | T(s) 3.63 | Feas 49 1019.33 1022.87 | Inf 27 1004.11 1010.57 | Div 0.19 0.23 | Feas 0.16 1.00 | Pen 2.71 0.10
It  12000  12002 | T(s) 3.78 | Feas 55 1019.33 1019.98 | Inf 49 1005.68 1011.45 | Div 0.12 0.14 | Feas 0.30 1.00 | Pen 2.76 0.10
It  12500  12502 | T(s) 3.94 | Feas 59 1019.33 1020.56 | Inf 37 993.68 995.75 | Div 0.15 0.14 | Feas 0.26 1.00 | Pen 2.35 0.10
It  13000  13002 | T(s) 4.10 | Feas 36 1019.33 1022.68 | Inf 39 1007.28 1008.71 | Div 0.22 0.12 | Feas 0.24 1.00 | Pen 2.81 0.10
It  13500  13502 | T(s) 4.25 | Feas 25 1019.33 1024.44 | Inf 31 1008.91 1011.47 | Div 0.23 0.17 | Feas 0.18 1.00 | Pen 2.87 0.10
It  14000  14002 | T(s) 4.40 | Feas 30 1019.33 1025.57 | Inf 25 1008.91 1016.50 | Div 0.25 0.24 | Feas 0.22 1.00 | Pen 2.87 0.10
It  14500  14502 | T(s) 4.55 | Feas 57 1019.33 1023.62 | Inf 61 1012.28 1012.72 | Div 0.20 0.09 | Feas 0.09 1.00 | Pen 2.99 0.10
It  15000  15002 | T(s) 4.70 | Feas 52 1019.33 1022.31 | Inf 45 1014.01 1015.21 | Div 0.19 0.15 | Feas 0.22 1.00 | Pen 3.05 0.10
It  15500  15502 | T(s) 4.85 | Feas 29 1019.33 1024.89 | Inf 65 1002.26 1003.72 | Div 0.24 0.13 | Feas 0.27 1.00 | Pen 2.64 0.10
It  16000  16002 | T(s) 5.01 | Feas 60 1019.33 1021.31 | Inf 63 1015.63 1016.50 | Div 0.17 0.11 | Feas 0.19 1.00 | Pen 3.17 0.10
It  16500  16502 | T(s) 5.17 | Feas 27 1019.33 1028.08 | Inf 63 1005.35 1005.80 | Div 0.29 0.08 | Feas 0.01 1.00 | Pen 2.75 0.10
It  17000  17002 | T(s) 5.32 | Feas 36 1019.33 1021.81 | Inf 59 1008.57 1011.77 | Div 0.19 0.16 | Feas 0.29 1.00 | Pen 2.86 0.10
It  17500  17502 | T(s) 5.47 | Feas 42 1019.33 1021.41 | Inf 41 1010.23 1014.64 | Div 0.19 0.15 | Feas 0.33 1.00 | Pen 2.92 0.10
It  18000  18002 | T(s) 5.62 | Feas 49 1019.33 1020.70 | Inf 60 1010.23 1010.85 | Div 0.16 0.09 | Feas 0.20 1.00 | Pen 2.92 0.10
It  18500  18502 | T(s) 5.77 | Feas 51 1019.33 1022.00 | Inf 48 1011.92 1012.52 | Div 0.19 0.11 | Feas 0.21 1.00 | Pen 2.97 0.10
It  19000  19002 | T(s) 5.92 | Feas 58 1019.33 1021.53 | Inf 35 1013.65 1015.19 | Div 0.18 0.17 | Feas 0.20 1.00 | Pen 3.03 0.10
It  19500  19502 | T(s) 6.07 | Feas 25 1019.33 1025.80 | Inf 59 1013.65 1014.10 | Div 0.25 0.10 | Feas 0.23 1.00 | Pen 3.03 0.10
----- GENETIC ALGORITHM FINISHED AFTER 20000 ITERATIONS. TIME SPENT: 6.22831
----- WRITING BEST SOLUTION IN : baseline_results/cvrp_hgs/Vrp-Set-B-n51/Vrp-Set-B-n51-hgs/0.hgs1.tour
