experiment/data/hgs-res/Vrp-Set-B-n51/Vrp-Set-B-n51-hgs/0.hgs1.tour
Route #1: 35 3 19 33 48
Route #2: 8 12 37 32 31 27 41
Route #3: 11 43 26 28 7 6
Route #4: 39 29 13 42 14 4
Route #5: 18
Route #6: 5 36 40 16 2 38 34 10 17
Route #7: 50 23 47 45 25 30 24 22 46
Route #8: 21 44 20 1 9 49 15
Cost 1019.33
